0 133 135
1 122 135
2 123 135
3 118 137
4 121 137
5 110 138
6 134 135
7 113 133
8 121 134
9 132 133
10 131 132
11 121 130
12 124 129
13 110 130
14 56 132
15 127 130
16 113 126
17 106 126
18 115 124
19 111 123
20 111 122
21 108 122
22 117 118
23 101 118
24 100 117
25 109 118
26 107 117
27 106 115
28 111 113
29 100 113
30 96 111
31 78 110
32 83 112
33 103 107
34 91 105
35 96 101
36 87 99
37 60 99
38 98 98
39 66 96
40 85 94
41 83 91
42 89 90
43 67 88
44 72 86
45 74 83
46 82 83
47 79 82
48 80 80
49 57 81
50 61 80
51 60 78
52 69 74
53 47 73
54 39 72
55 60 69
56 49 67
57 32 66
58 61 64
59 62 62
60 23 60
61 26 60
62 52 58
63 51 55
64 36 55
65 54 55
66 38 51
67 47 51
68 46 50
69 50 50
70 42 50
71 42 48
72 43 46
73 44 45
74 42 43
75 32 42
76 17 41
77 27 39
78 25 37
79 34 34
80 31 32
81 25 33
82 31 35
83 32 32
84 32 33
85 19 33
86 21 32
87 30 32
88 32 32
89 29 31
90 16 32
91 28 33
92 25 32
93 25 30
94 21 31
95 25 32
96 27 30
97 28 29
98 17 27
99 22 26
100 13 25
101 21 22
102 17 20
103 18 20
104 12 18
105 4 18
106 15 19
107 13 16
108 11 15
109 13 14
110 13 13
111 5 13
112 11 12
113 6 13
114 7 12
115 10 12
116 2 11
117 9 11
118 8 10
119 6 9
120 3 8
121 7 7
122 2 4
123 2 4
124 3 3
125 2 2
126 2 2
127 1 1
128 1 1

